WARNING: for repeatability, setting FPU to use double precision
============================[ Problem Statistics ]=============================
|                                                                             |
|  Number of variables:           100                                         |
|  Number of clauses:             449                                         |
|  Parse time:                   0.00 s                                       |
|  Eliminated clauses:           0.00 Mb                                      |
|  Simplification time:          0.00 s                                       |
|                                                                             |
============================[ Search Statistics ]==============================
| Conflicts |          ORIGINAL         |          LEARNT          | Progress |
|           |    Vars  Clauses Literals |    Limit  Clauses Lit/Cl |          |
===============================================================================
|       100 |      97      440     1335 |      161      100      7 |  0.010 % |
===============================================================================
restarts              : 2
conflicts             : 130            (inf /sec)
decisions             : 167            (0.00 % random) (inf /sec)
propagations          : 2819           (inf /sec)
conflict literals     : 939            (15.33 % deleted)
Memory used           : 13.00 MB
CPU time              : 0 s

SATISFIABLE
